c description: Random 3-CNF over 15 variables and 110 clauses
c generator: CNFgen (0.9.0)
c copyright: (C) 2012-2020 Massimo Lauria <massimo.lauria@uniroma1.it>
c url: https://massimolauria.net/cnfgen
c
p cnf 15 110
-3 -5 -7 0
6 13 15 0
-4 8 14 0
3 -5 -11 0
-3 -7 14 0
7 9 -10 0
6 -11 -12 0
3 5 -15 0
-8 -12 -15 0
9 -10 -13 0
4 9 -10 0
-1 -2 7 0
-1 11 -13 0
6 -9 14 0
-3 4 -12 0
-7 12 13 0
2 -5 -7 0
-4 -5 6 0
-6 7 14 0
-4 -10 14 0
7 8 -14 0
2 -9 12 0
-1 -4 10 0
-6 -7 12 0
-3 10 -14 0
-1 -2 -8 0
6 -10 -13 0
3 -8 -10 0
-4 9 -11 0
4 -10 -15 0
-2 -3 8 0
2 -3 -8 0
6 -11 -15 0
6 -7 12 0
-5 -8 -11 0
1 -8 -14 0
2 5 -9 0
3 4 14 0
-3 11 14 0
4 -6 -11 0
-3 -12 15 0
-2 10 -15 0
3 -5 -9 0
-1 8 -15 0
2 4 8 0
-8 9 -14 0
1 7 11 0
-2 7 15 0
-2 -13 14 0
-1 5 6 0
-3 -7 -14 0
-1 -3 -13 0
-1 10 13 0
2 -12 14 0
-3 7 10 0
6 8 9 0
2 -7 8 0
11 13 14 0
-1 -3 -4 0
-6 8 10 0
-4 9 -13 0
-1 8 11 0
-2 7 -11 0
-4 -11 15 0
-5 13 15 0
-4 9 -15 0
-1 2 4 0
-3 -12 -15 0
-4 9 -12 0
-4 9 11 0
-7 -10 -14 0
-3 -4 -11 0
5 9 -15 0
-4 -10 -12 0
1 -9 15 0
4 10 12 0
2 -6 -15 0
-5 13 -15 0
2 4 -6 0
1 9 -13 0
4 8 -12 0
-1 -11 13 0
-2 -3 -9 0
4 -8 -11 0
7 14 -15 0
-5 11 -15 0
4 -9 -10 0
-11 -13 15 0
6 11 14 0
7 10 12 0
-4 6 -7 0
1 -2 8 0
-2 6 11 0
-10 11 -12 0
-10 11 -15 0
-6 -7 -13 0
-2 6 9 0
2 -13 -15 0
-5 -6 14 0
7 9 12 0
2 4 -15 0
1 -11 13 0
4 -10 15 0
1 -5 -8 0
3 4 5 0
8 11 14 0
-1 -8 12 0
5 -6 -15 0
-2 -11 -15 0
-1 -6 7 0